c nIsolatedPIs 0
c maxPI 32
p cnf 91 178
c gate 33 16 -32 0
16 -33 0
-32 -33 0
-16 32 33 0
c gate 34 -16 32 0
-16 -34 0
32 -34 0
16 -32 34 0
c gate 35 -33 -34 0
-33 -35 0
-34 -35 0
33 34 35 0
c gate 36 13 -29 0
13 -36 0
-29 -36 0
-13 29 36 0
c gate 37 -12 28 0
-12 -37 0
28 -37 0
12 -28 37 0
c gate 38 10 -26 0
10 -38 0
-26 -38 0
-10 26 38 0
c gate 39 -9 25 0
-9 -39 0
25 -39 0
9 -25 39 0
c gate 40 -8 24 0
-8 -40 0
24 -40 0
8 -24 40 0
c gate 41 7 -23 0
7 -41 0
-23 -41 0
-7 23 41 0
c gate 42 -7 23 0
-7 -42 0
23 -42 0
7 -23 42 0
c gate 43 6 -22 0
6 -43 0
-22 -43 0
-6 22 43 0
c gate 44 -2 18 0
-2 -44 0
18 -44 0
2 -18 44 0
c gate 45 -1 17 0
-1 -45 0
17 -45 0
1 -17 45 0
c gate 46 -44 -45 0
-44 -46 0
-45 -46 0
44 45 46 0
c gate 47 2 -18 0
2 -47 0
-18 -47 0
-2 18 47 0
c gate 48 3 -19 0
3 -48 0
-19 -48 0
-3 19 48 0
c gate 49 -47 -48 0
-47 -49 0
-48 -49 0
47 48 49 0
c gate 50 -46 49 0
-46 -50 0
49 -50 0
46 -49 50 0
c gate 51 -3 19 0
-3 -51 0
19 -51 0
3 -19 51 0
c gate 52 -4 20 0
-4 -52 0
20 -52 0
4 -20 52 0
c gate 53 -51 -52 0
-51 -53 0
-52 -53 0
51 52 53 0
c gate 54 -50 53 0
-50 -54 0
53 -54 0
50 -53 54 0
c gate 55 5 -21 0
5 -55 0
-21 -55 0
-5 21 55 0
c gate 56 4 -20 0
4 -56 0
-20 -56 0
-4 20 56 0
c gate 57 -55 -56 0
-55 -57 0
-56 -57 0
55 56 57 0
c gate 58 -54 57 0
-54 -58 0
57 -58 0
54 -57 58 0
c gate 59 -6 22 0
-6 -59 0
22 -59 0
6 -22 59 0
c gate 60 -5 21 0
-5 -60 0
21 -60 0
5 -21 60 0
c gate 61 -59 -60 0
-59 -61 0
-60 -61 0
59 60 61 0
c gate 62 -58 61 0
-58 -62 0
61 -62 0
58 -61 62 0
c gate 63 -43 -62 0
-43 -63 0
-62 -63 0
43 62 63 0
c gate 64 -42 -63 0
-42 -64 0
-63 -64 0
42 63 64 0
c gate 65 -41 -64 0
-41 -65 0
-64 -65 0
41 64 65 0
c gate 66 -40 -65 0
-40 -66 0
-65 -66 0
40 65 66 0
c gate 67 8 -24 0
8 -67 0
-24 -67 0
-8 24 67 0
c gate 68 9 -25 0
9 -68 0
-25 -68 0
-9 25 68 0
c gate 69 -67 -68 0
-67 -69 0
-68 -69 0
67 68 69 0
c gate 70 -66 69 0
-66 -70 0
69 -70 0
66 -69 70 0
c gate 71 -39 -70 0
-39 -71 0
-70 -71 0
39 70 71 0
c gate 72 -38 -71 0
-38 -72 0
-71 -72 0
38 71 72 0
c gate 73 -10 26 0
-10 -73 0
26 -73 0
10 -26 73 0
c gate 74 -11 27 0
-11 -74 0
27 -74 0
11 -27 74 0
c gate 75 -73 -74 0
-73 -75 0
-74 -75 0
73 74 75 0
c gate 76 -72 75 0
-72 -76 0
75 -76 0
72 -75 76 0
c gate 77 11 -27 0
11 -77 0
-27 -77 0
-11 27 77 0
c gate 78 12 -28 0
12 -78 0
-28 -78 0
-12 28 78 0
c gate 79 -77 -78 0
-77 -79 0
-78 -79 0
77 78 79 0
c gate 80 -76 79 0
-76 -80 0
79 -80 0
76 -79 80 0
c gate 81 -37 -80 0
-37 -81 0
-80 -81 0
37 80 81 0
c gate 82 -36 -81 0
-36 -82 0
-81 -82 0
36 81 82 0
c gate 83 -13 29 0
-13 -83 0
29 -83 0
13 -29 83 0
c gate 84 -14 30 0
-14 -84 0
30 -84 0
14 -30 84 0
c gate 85 -83 -84 0
-83 -85 0
-84 -85 0
83 84 85 0
c gate 86 -82 85 0
-82 -86 0
85 -86 0
82 -85 86 0
c gate 87 15 -31 0
15 -87 0
-31 -87 0
-15 31 87 0
c gate 88 14 -30 0
14 -88 0
-30 -88 0
-14 30 88 0
c gate 89 87 -88 0
87 -89 0
-88 -89 0
-87 88 89 0
c gate 90 -86 89 0
-86 -90 0
89 -90 0
86 -89 90 0
c gate 91 35 90 0
35 -91 0
90 -91 0
-35 -90 91 0
c PO
91 0
